solving instance mcnd nodes c57 3 6 log
presolving:
(round 1, fast)       710 del vars, 710 del conss, 0 add conss, 30 chg bounds, 0 chg sides, 0 chg coeffs, 0 upgd conss, 0 impls, 0 clqs
(round 2, exhaustive) 710 del vars, 1390 del conss, 0 add conss, 30 chg bounds, 0 chg sides, 0 chg coeffs, 0 upgd conss, 0 impls, 0 clqs
(round 3, exhaustive) 710 del vars, 1390 del conss, 0 add conss, 30 chg bounds, 0 chg sides, 0 chg coeffs, 68000 upgd conss, 0 impls, 0 clqs
   (1.6s) probing: 51/680 (7.5%) - 0 fixings, 0 aggregations, 0 implications, 0 bound changes
   (1.6s) probing aborted: 50/50 successive totally useless probings
   (1.6s) symmetry computation started: requiring (bin +, int +, cont +), (fixed: bin -, int -, cont -)
   (2.1s) no symmetry present (symcode time: 0.18)
presolving (4 rounds: 4 fast, 3 medium, 3 exhaustive):
 710 deleted vars, 1390 deleted constraints, 0 added constraints, 30 tightened bounds, 0 added holes, 0 changed sides, 0 changed coefficients
 68000 implications, 0 cliques
presolved problem has 68740 variables (680 bin, 0 int, 0 impl, 68060 cont) and 71740 constraints
  68000 constraints of type <varbound>
   3710 constraints of type <linear>
     30 constraints of type <nonlinear>
Presolving Time: 1.86

 time | node  | left  |LP iter|LP it/n|mem/heur|mdpt |vars |cons |rows |cuts |sepa|confs|strbr|  dualbound   | primalbound  |  gap   | compl. 
t47.5s|     1 |     0 | 24693 |     - |  trysol|   0 |  68k|  71k|  71k|   0 |  0 |   0 |   0 |-5.722046e-05 | 1.619347e+05 |    Inf | unknown
 1689s|     1 |     0 |147593 |     - |   524M |   0 |  68k|  71k|  71k|   0 |  0 |   0 |   0 | 1.019212e+04 | 1.619347e+05 |1488.82%| unknown
t2223s|     1 |     0 |186603 |     - |  trysol|   0 |  68k|  71k|  71k|   0 |  0 |   0 |   0 | 1.019212e+04 | 3.136367e+04 | 207.72%| unknown
 2394s|     1 |     0 |197155 |     - |   553M |   0 |  68k|  71k|  71k|  10 |  1 |   0 |   0 | 1.019350e+04 | 3.136367e+04 | 207.68%| unknown
 2428s|     1 |     0 |197155 |     - |   555M |   0 |  68k|  71k|  71k|  10 |  1 |   0 |   0 | 1.019350e+04 | 3.136367e+04 | 207.68%| unknown
 2521s|     1 |     0 |201586 |     - |   567M |   0 |  68k|  71k|  71k|  21 |  2 |   0 |   0 | 1.019406e+04 | 3.136367e+04 | 207.67%| unknown
 2615s|     1 |     0 |209271 |     - |   574M |   0 |  68k|  71k|  71k|  28 |  3 |   0 |   0 | 1.019525e+04 | 3.136367e+04 | 207.63%| unknown
 2661s|     1 |     0 |212724 |     - |   582M |   0 |  68k|  71k|  71k|  32 |  4 |   0 |   0 | 1.019585e+04 | 3.136367e+04 | 207.61%| unknown
 2679s|     1 |     0 |213717 |     - |   589M |   0 |  68k|  71k|  71k|  35 |  5 |   0 |   0 | 1.019590e+04 | 3.136367e+04 | 207.61%| unknown
 2697s|     1 |     0 |214305 |     - |   596M |   0 |  68k|  71k|  71k|  38 |  6 |   0 |   0 | 1.019596e+04 | 3.136367e+04 | 207.61%| unknown
 2716s|     1 |     0 |215281 |     - |   603M |   0 |  68k|  71k|  71k|  39 |  7 |   0 |   0 | 1.019601e+04 | 3.136367e+04 | 207.61%| unknown
 2724s|     1 |     0 |215400 |     - |   611M |   0 |  68k|  71k|  71k|  40 |  8 |   0 |   0 | 1.019601e+04 | 3.136367e+04 | 207.61%| unknown
 2745s|     1 |     0 |216453 |     - |   618M |   0 |  68k|  71k|  71k|  41 | 10 |   0 |   0 | 1.019607e+04 | 3.136367e+04 | 207.61%| unknown
 3567s|     1 |     0 |293460 |     - |   628M |   0 |  68k|  71k|  71k|  41 | 11 |   0 |   0 | 1.029877e+04 | 3.136367e+04 | 204.54%| unknown
t3568s|     1 |     0 |293460 |     - |  trysol|   0 |  68k|  71k|  71k|  41 | 11 |   0 |   0 | 1.029877e+04 | 3.110905e+04 | 202.07%| unknown
 time | node  | left  |LP iter|LP it/n|mem/heur|mdpt |vars |cons |rows |cuts |sepa|confs|strbr|  dualbound   | primalbound  |  gap   | compl. 
 3600s|     1 |     0 |293460 |     - |   630M |   0 |  68k|  71k|  71k|  69 | 12 |   0 |   0 | 1.029877e+04 | 3.110905e+04 | 202.07%| unknown
(node 1) LP solver hit time limit in LP 66 -- using pseudo solution instead

SCIP Status        : solving was interrupted [time limit reached]
Solving Time (sec) : 3600.01
Solving Nodes      : 1
Primal Bound       : +3.11090525268253e+04 (4 solutions)
Dual Bound         : +1.02987663039217e+04
Gap                : 202.07 %
primal_bound = 31109.052526825264, dual_bound = 10298.76630392166, gap = 66.89463205270859, time = 3603.12
